[[52, 11, 12, 51, 33, 43, 15, 5, 6, 4, 25, 24, 38, 48, 46, 44, 37, 40, 39, 34, 35, 36, 49, 22, 32, 45, 10, 9], [8, 41, 19, 3, 18, 31, 21, 17, 7, 2, 42, 30, 23, 20, 50, 16, 29, 47, 26, 28, 27, 13, 14]]